\Problem name: MIN custos totais

Minimize
OBJROW: 111.54951 x(a1,0) + 100 x(a1,1) + 132.28240 x(a1,2) + 107.65520 x(a1,3) + 189.34360 x(a1,4) + 169.54248 x(a1,5) + 162.13022 x(a1,6) + 119.74559 x(a1,7) + 130.67091 x(a1,8) + 142.67618 x(a1,9)
 + 176.71794 x(a1,10) + 118.60336 x(a1,11) + 111.54951 x(a1,12) + 178.60488 x(a2,0) + 161.60000 x(a2,1) + 320.64341 x(a2,2) + 316.59818 x(a2,3) + 271.37049 x(a2,4) + 209.02647 x(a2,5) + 220.10008 x(a2,6)
 + 192.73350 x(a2,7) + 183.04554 x(a2,8) + 175.56348 x(a2,9) + 166.38489 x(a2,10) + 201.79751 x(a2,11) + 178.60488 x(a2,12) + 244.49977 x(a3,0) + 161.60000 x(a3,1) + 211.04363 x(a3,2) + 268.08951 x(a3,3)
 + 233.25448 x(a3,4) + 236.04016 x(a3,5) + 195.25524 x(a3,6) + 243.11567 x(a3,7) + 247.96991 x(a3,8) + 279.49848 x(a3,9) + 296.55364 x(a3,10) + 319.27546 x(a3,11) + 244.49977 x(a3,12) + 146.70739 x(a4,0)
 + 117.25000 x(a4,1) + 188.24211 x(a4,2) + 215.52258 x(a4,3) + 134.16900 x(a4,4) + 158.50841 x(a4,5) + 197.20370 x(a4,6) + 202.39495 x(a4,7) + 144.52829 x(a4,8) + 210.73616 x(a4,9) + 164.71112 x(a4,10)
 + 141.16850 x(a4,11) + 146.70739 x(a4,12) + 425.65943 x(b1,0) + 220.54000 x(b1,1) + 332.24320 x(b1,2) + 377.32872 x(b1,3) + 406.06797 x(b1,4) + 229.27635 x(b1,5) + 312.19088 x(b1,6) + 234.76028 x(b1,7)
 + 401.19557 x(b1,8) + 385.88904 x(b1,9) + 241.75041 x(b1,10) + 374.02803 x(b1,11) + 425.65943 x(b1,12) + 226.89896 x(b2,0) + 220.17000 x(b2,1) + 266.47438 x(b2,2) + 349.22942 x(b2,3) + 242.17757 x(b2,4)
 + 316.30549 x(b2,5) + 289.79973 x(b2,6) + 306.68948 x(b2,7) + 295.71449 x(b2,8) + 343.70274 x(b2,9) + 345.38693 x(b2,10) + 415.58457 x(b2,11) + 226.89896 x(b2,12) + 275.04056 x(b3,0) + 220.54000 x(b3,1)
 + 290.52095 x(b3,2) + 340.53792 x(b3,3) + 416.09818 x(b3,4) + 336.27955 x(b3,5) + 275.59676 x(b3,6) + 428.11386 x(b3,7) + 283.90847 x(b3,8) + 429.01173 x(b3,9) + 340.00233 x(b3,10) + 414.41834 x(b3,11)
 + 275.04056 x(b3,12) + 332.62355 x(b4,0) + 262.19000 x(b4,1) + 515.72973 x(b4,2) + 444.84421 x(b4,3) + 283.91027 x(b4,4) + 262.22234 x(b4,5) + 339.04165 x(b4,6) + 400.57086 x(b4,7) + 278.76720 x(b4,8)
 + 345.93070 x(b4,9) + 501.28367 x(b4,10) + 313.55178 x(b4,11) + 332.62355 x(b4,12) + 65.17351 x(c1,0) + 56.63000 x(c1,1) + 107.05206 x(c1,2) + 75.19554 x(c1,3) + 67.57364 x(c1,4) + 72.26597 x(c1,5)
 + 83.18147 x(c1,6) + 63.15672 x(c1,7) + 84.70311 x(c1,8) + 109.03204 x(c1,9) + 83.80511 x(c1,10) + 95.03426 x(c1,11) + 65.17351 x(c1,12) + 124.91629 x(d1,0) + 65.55000 x(d1,1) + 91.44688 x(d1,2)
 + 85.51843 x(d1,3) + 82.56836 x(d1,4) + 99.62627 x(d1,5) + 90.40391 x(d1,6) + 71.40840 x(d1,7) + 65.93832 x(d1,8) + 105.39617 x(d1,9) + 106.05249 x(d1,10) + 67.76419 x(d1,11) + 124.91629 x(d1,12)
 + 343.54300 x(e1,0) + 272.94000 x(e1,1) + 520.94885 x(e1,2) + 495.00183 x(e1,3) + 337.73040 x(e1,4) + 289.46448 x(e1,5) + 515.83021 x(e1,6) + 383.99305 x(e1,7) + 485.67574 x(e1,8) + 335.20909 x(e1,9)
 + 315.71725 x(e1,10) + 541.06577 x(e1,11) + 343.54300 x(e1,12) + 184.48624 x(f1,0) + 152.51000 x(f1,1) + 240.66513 x(f1,2) + 286.93948 x(f1,3) + 162.60404 x(f1,4) + 193.64769 x(f1,5) + 217.99082 x(f1,6)
 + 215.85904 x(f1,7) + 184.98202 x(f1,8) + 247.55837 x(f1,9) + 185.04762 x(f1,10) + 181.28642 x(f1,11) + 184.48624 x(f1,12) + 149.74216 x(g1,0) + 86 x(g1,1) + 114.25470 x(g1,2) + 167.01612 x(g1,3)
 + 159.48250 x(g1,4) + 166.96593 x(g1,5) + 117.06738 x(g1,6) + 119.31501 x(g1,7) + 158.63349 x(g1,8) + 162.20329 x(g1,9) + 157.37939 x(g1,10) + 171.58418 x(g1,11) + 149.74216 x(g1,12) + 84.63986 x(h1,0)
 + 53 x(h1,1) + 96.29345 x(h1,2) + 59.99034 x(h1,3) + 60.94195 x(h1,4) + 100.33008 x(h1,5) + 56.75998 x(h1,6) + 62.12839 x(h1,7) + 81.08430 x(h1,8) + 83.95865 x(h1,9) + 75.00986 x(h1,10)
 + 59.37983 x(h1,11) + 84.63986 x(h1,12) + 1.76568 y(a1,0) + 0.99757 y(a1,1) + 1.09155 y(a1,2) + 1.93000 y(a1,3) + 1.48378 y(a1,4) + 1.77648 y(a1,5) + 1.61283 y(a1,6) + 1.02993 y(a1,7)
 + 1.54701 y(a1,8) + 1.84824 y(a1,9) + 1.25654 y(a1,10) + 1.49193 y(a1,11) + 1.76568 y(a1,12) + 2.56870 y(a2,0) + 1.61208 y(a2,1) + 3.19509 y(a2,2) + 2.97537 y(a2,3) + 1.82620 y(a2,4)
 + 2.28713 y(a2,5) + 1.64550 y(a2,6) + 2.80291 y(a2,7) + 2.16099 y(a2,8) + 1.93327 y(a2,9) + 2.37458 y(a2,10) + 1.66078 y(a2,11) + 2.56870 y(a2,12) + 2.85225 y(a3,0) + 1.61208 y(a3,1)
 + 2.81700 y(a3,2) + 1.92634 y(a3,3) + 2.47608 y(a3,4) + 1.82512 y(a3,5) + 1.78689 y(a3,6) + 2.03917 y(a3,7) + 3.14194 y(a3,8) + 2.30812 y(a3,9) + 1.62257 y(a3,10) + 1.65407 y(a3,11)
 + 2.85225 y(a3,12) + 1.96535 y(a4,0) + 1.16965 y(a4,1) + 2.07361 y(a4,2) + 1.48325 y(a4,3) + 1.56106 y(a4,4) + 1.96215 y(a4,5) + 2.28821 y(a4,6) + 1.35500 y(a4,7) + 2.18162 y(a4,8)
 + 2.19782 y(a4,9) + 1.27428 y(a4,10) + 1.63139 y(a4,11) + 1.96535 y(a4,12) + 3.93644 y(b1,0) + 2.20005 y(b1,1) + 3.65396 y(b1,2) + 2.68480 y(b1,3) + 2.35007 y(b1,4) + 2.27430 y(b1,5)
 + 3.80165 y(b1,6) + 2.24850 y(b1,7) + 2.29489 y(b1,8) + 4.39134 y(b1,9) + 2.96548 y(b1,10) + 3.03137 y(b1,11) + 3.93644 y(b1,12) + 2.56715 y(b2,0) + 2.19635 y(b2,1) + 4.20359 y(b2,2)
 + 3.35066 y(b2,3) + 3.93187 y(b2,4) + 2.99301 y(b2,5) + 2.59333 y(b2,6) + 4.05299 y(b2,7) + 2.56801 y(b2,8) + 3.84428 y(b2,9) + 2.94782 y(b2,10) + 3.84352 y(b2,11) + 2.56715 y(b2,12)
 + 4.36749 y(b3,0) + 2.20005 y(b3,1) + 3.14527 y(b3,2) + 3.63896 y(b3,3) + 3.68770 y(b3,4) + 2.36564 y(b3,5) + 3.27039 y(b3,6) + 3.57984 y(b3,7) + 3.20782 y(b3,8) + 3.92397 y(b3,9)
 + 3.69926 y(b3,10) + 3.26914 y(b3,11) + 4.36749 y(b3,12) + 5.01566 y(b4,0) + 2.61553 y(b4,1) + 2.97839 y(b4,2) + 3.18522 y(b4,3) + 4.66021 y(b4,4) + 3.73487 y(b4,5) + 3.44085 y(b4,6)
 + 3.70797 y(b4,7) + 3.04643 y(b4,8) + 4.82148 y(b4,9) + 3.07940 y(b4,10) + 3.12057 y(b4,11) + 5.01566 y(b4,12) + 0.77078 y(c1,0) + 0.56492 y(c1,1) + 0.69857 y(c1,2) + 0.59472 y(c1,3)
 + 0.96827 y(c1,4) + 0.78607 y(c1,5) + 0.74490 y(c1,6) + 0.97178 y(c1,7) + 1.03233 y(c1,8) + 0.66735 y(c1,9) + 0.59927 y(c1,10) + 1.09143 y(c1,11) + 0.77078 y(c1,12) + 0.76491 y(d1,0)
 + 0.65391 y(d1,1) + 0.85487 y(d1,2) + 0.95613 y(d1,3) + 1.28527 y(d1,4) + 0.71684 y(d1,5) + 1.16634 y(d1,6) + 0.67673 y(d1,7) + 0.70793 y(d1,8) + 0.87722 y(d1,9) + 0.85686 y(d1,10)
 + 0.85186 y(d1,11) + 0.76491 y(d1,12) + 4.00045 y(e1,0) + 2.72277 y(e1,1) + 2.73463 y(e1,2) + 5.13232 y(e1,3) + 2.86409 y(e1,4) + 4.26198 y(e1,5) + 3.40740 y(e1,6) + 3.47395 y(e1,7)
 + 4.94787 y(e1,8) + 3.96469 y(e1,9) + 3.58162 y(e1,10) + 4.08018 y(e1,11) + 4.00045 y(e1,12) + 2.56351 y(f1,0) + 1.52140 y(f1,1) + 2.58793 y(f1,2) + 1.64683 y(f1,3) + 2.67029 y(f1,4)
 + 2.62589 y(f1,5) + 1.78776 y(f1,6) + 2.43370 y(f1,7) + 2.52318 y(f1,8) + 2.55258 y(f1,9) + 1.62212 y(f1,10) + 1.80515 y(f1,11) + 2.56351 y(f1,12) + 1.08747 y(g1,0) + 0.85791 y(g1,1)
 + 1.32663 y(g1,2) + 1.69281 y(g1,3) + 1.34949 y(g1,4) + 1.21250 y(g1,5) + 1.19917 y(g1,6) + 1.36770 y(g1,7) + 1.56251 y(g1,8) + 1.12067 y(g1,9) + 0.96296 y(g1,10) + 1.62471 y(g1,11)
 + 1.08747 y(g1,12) + 0.79560 y(h1,0) + 0.52871 y(h1,1) + 0.71163 y(h1,2) + 1.00847 y(h1,3) + 0.52971 y(h1,4) + 0.97386 y(h1,5) + 0.79066 y(h1,6) + 1.00956 y(h1,7) + 1.01608 y(h1,8)
 + 0.70444 y(h1,9) + 1.03125 y(h1,10) + 0.71634 y(h1,11) + 0.79560 y(h1,12)
Subject To
constr(0):  y(a1,0) = 90
constr(1):  y(a2,0) = 16
constr(2):  y(a3,0) = 7
constr(3):  y(a4,0) = 85
constr(4):  y(b1,0) = 26
constr(5):  y(b2,0) = 3
constr(6):  y(b3,0) = 57
constr(7):  y(b4,0) = 16
constr(8):  y(c1,0) = 36
constr(9):  y(d1,0) = 15
constr(10):  y(e1,0) = 75
constr(11):  y(f1,0) = 60
constr(12):  y(g1,0) = 57
constr(13):  y(h1,0) = 5
constr(14):  x(a1,1) + y(a1,0) - y(a1,1) = 3
constr(15):  x(a1,2) + y(a1,1) - y(a1,2) = 18
constr(16):  x(a1,3) + y(a1,2) - y(a1,3) = 24
constr(17):  x(a1,4) + y(a1,3) - y(a1,4) = 15
constr(18):  x(a1,5) + y(a1,4) - y(a1,5) = 12
constr(19):  x(a1,6) + y(a1,5) - y(a1,6) = 9
constr(20):  x(a1,7) + y(a1,6) - y(a1,7) = 24
constr(21):  x(a1,8) + y(a1,7) - y(a1,8) = 24
constr(22):  x(a1,9) + y(a1,8) - y(a1,9) = 18
constr(23):  x(a1,10) + y(a1,9) - y(a1,10) = 15
constr(24):  x(a1,11) + y(a1,10) - y(a1,11) = 15
constr(25):  x(a1,12) + y(a1,11) - y(a1,12) = 15
constr(26):  x(a2,1) + y(a2,0) - y(a2,1) = 2
constr(27):  x(a2,2) + y(a2,1) - y(a2,2) = 20
constr(28):  x(a2,3) + y(a2,2) - y(a2,3) = 12
constr(29):  x(a2,4) + y(a2,3) - y(a2,4) = 6
constr(30):  x(a2,5) + y(a2,4) - y(a2,5) = 4
constr(31):  x(a2,6) + y(a2,5) - y(a2,6) = 14
constr(32):  x(a2,7) + y(a2,6) - y(a2,7) = 18
constr(33):  x(a2,8) + y(a2,7) - y(a2,8) = 12
constr(34):  x(a2,9) + y(a2,8) - y(a2,9) = 6
constr(35):  x(a2,10) + y(a2,9) - y(a2,10) = 16
constr(36):  x(a2,11) + y(a2,10) - y(a2,11) = 10
constr(37):  x(a2,12) + y(a2,11) - y(a2,12) = 24
constr(38):  x(a3,1) + y(a3,0) - y(a3,1) = 3
constr(39):  x(a3,2) + y(a3,1) - y(a3,2) = 24
constr(40):  x(a3,3) + y(a3,2) - y(a3,3) = 33
constr(41):  x(a3,4) + y(a3,3) - y(a3,4) = 21
constr(42):  x(a3,5) + y(a3,4) - y(a3,5) = 36
constr(43):  x(a3,6) + y(a3,5) - y(a3,6) = 33
constr(44):  x(a3,7) + y(a3,6) - y(a3,7) = 33
constr(45):  x(a3,8) + y(a3,7) - y(a3,8) = 33
constr(46):  x(a3,9) + y(a3,8) - y(a3,9) = 12
constr(47):  x(a3,10) + y(a3,9) - y(a3,10) = 36
constr(48):  x(a3,11) + y(a3,10) - y(a3,11) = 36
constr(49):  x(a3,12) + y(a3,11) - y(a3,12) = 3
constr(50):  x(a4,1) + y(a4,0) - y(a4,1) = 3
constr(51):  x(a4,2) + y(a4,1) - y(a4,2) = 9
constr(52):  x(a4,3) + y(a4,2) - y(a4,3) = 30
constr(53):  x(a4,4) + y(a4,3) - y(a4,4) = 36
constr(54):  x(a4,5) + y(a4,4) - y(a4,5) = 18
constr(55):  x(a4,6) + y(a4,5) - y(a4,6) = 3
constr(56):  x(a4,7) + y(a4,6) - y(a4,7) = 33
constr(57):  x(a4,8) + y(a4,7) - y(a4,8) = 9
constr(58):  x(a4,9) + y(a4,8) - y(a4,9) = 33
constr(59):  x(a4,10) + y(a4,9) - y(a4,10) = 33
constr(60):  x(a4,11) + y(a4,10) - y(a4,11) = 33
constr(61):  x(a4,12) + y(a4,11) - y(a4,12) = 27
constr(62):  x(b1,1) + y(b1,0) - y(b1,1) = 1
constr(63):  x(b1,2) + y(b1,1) - y(b1,2) = 4
constr(64):  x(b1,3) + y(b1,2) - y(b1,3) = 2
constr(65):  x(b1,4) + y(b1,3) - y(b1,4) = 8
constr(66):  x(b1,5) + y(b1,4) - y(b1,5) = 2
constr(67):  x(b1,6) + y(b1,5) - y(b1,6) = 11
constr(68):  x(b1,7) + y(b1,6) - y(b1,7) = 2
constr(69):  x(b1,8) + y(b1,7) - y(b1,8) = 2
constr(70):  x(b1,9) + y(b1,8) - y(b1,9) = 12
constr(71):  x(b1,10) + y(b1,9) - y(b1,10) = 5
constr(72):  x(b1,11) + y(b1,10) - y(b1,11) = 6
constr(73):  x(b1,12) + y(b1,11) - y(b1,12) = 9
constr(74):  x(b2,1) + y(b2,0) - y(b2,1) = 1
constr(75):  x(b2,2) + y(b2,1) - y(b2,2) = 5
constr(76):  x(b2,3) + y(b2,2) - y(b2,3) = 6
constr(77):  x(b2,4) + y(b2,3) - y(b2,4) = 10
constr(78):  x(b2,5) + y(b2,4) - y(b2,5) = 12
constr(79):  x(b2,6) + y(b2,5) - y(b2,6) = 6
constr(80):  x(b2,7) + y(b2,6) - y(b2,7) = 8
constr(81):  x(b2,8) + y(b2,7) - y(b2,8) = 5
constr(82):  x(b2,9) + y(b2,8) - y(b2,9) = 4
constr(83):  x(b2,10) + y(b2,9) - y(b2,10) = 11
constr(84):  x(b2,11) + y(b2,10) - y(b2,11) = 8
constr(85):  x(b2,12) + y(b2,11) - y(b2,12) = 12
constr(86):  x(b3,1) + y(b3,0) - y(b3,1) = 1
constr(87):  x(b3,2) + y(b3,1) - y(b3,2) = 9
constr(88):  x(b3,3) + y(b3,2) - y(b3,3) = 12
constr(89):  x(b3,4) + y(b3,3) - y(b3,4) = 10
constr(90):  x(b3,5) + y(b3,4) - y(b3,5) = 7
constr(91):  x(b3,6) + y(b3,5) - y(b3,6) = 6
constr(92):  x(b3,7) + y(b3,6) - y(b3,7) = 7
constr(93):  x(b3,8) + y(b3,7) - y(b3,8) = 1
constr(94):  x(b3,9) + y(b3,8) - y(b3,9) = 2
constr(95):  x(b3,10) + y(b3,9) - y(b3,10) = 9
constr(96):  x(b3,11) + y(b3,10) - y(b3,11) = 6
constr(97):  x(b3,12) + y(b3,11) - y(b3,12) = 3
constr(98):  x(b4,1) + y(b4,0) - y(b4,1) = 1
constr(99):  x(b4,2) + y(b4,1) - y(b4,2) = 12
constr(100):  x(b4,3) + y(b4,2) - y(b4,3) = 4
constr(101):  x(b4,4) + y(b4,3) - y(b4,4) = 4
constr(102):  x(b4,5) + y(b4,4) - y(b4,5) = 9
constr(103):  x(b4,6) + y(b4,5) - y(b4,6) = 1
constr(104):  x(b4,7) + y(b4,6) - y(b4,7) = 4
constr(105):  x(b4,8) + y(b4,7) - y(b4,8) = 8
constr(106):  x(b4,9) + y(b4,8) - y(b4,9) = 5
constr(107):  x(b4,10) + y(b4,9) - y(b4,10) = 10
constr(108):  x(b4,11) + y(b4,10) - y(b4,11) = 9
constr(109):  x(b4,12) + y(b4,11) - y(b4,12) = 11
constr(110):  x(c1,1) + y(c1,0) - y(c1,1) = 5
constr(111):  x(c1,2) + y(c1,1) - y(c1,2) = 55
constr(112):  x(c1,3) + y(c1,2) - y(c1,3) = 15
constr(113):  x(c1,4) + y(c1,3) - y(c1,4) = 25
constr(114):  x(c1,5) + y(c1,4) - y(c1,5) = 60
constr(115):  x(c1,6) + y(c1,5) - y(c1,6) = 60
constr(116):  x(c1,7) + y(c1,6) - y(c1,7) = 35
constr(117):  x(c1,8) + y(c1,7) - y(c1,8) = 5
constr(118):  x(c1,9) + y(c1,8) - y(c1,9) = 5
constr(119):  x(c1,10) + y(c1,9) - y(c1,10) = 60
constr(120):  x(c1,11) + y(c1,10) - y(c1,11) = 35
constr(121):  x(c1,12) + y(c1,11) - y(c1,12) = 60
constr(122):  x(d1,1) + y(d1,0) - y(d1,1) = 30
constr(123):  x(d1,2) + y(d1,1) - y(d1,2) = 30
constr(124):  x(d1,3) + y(d1,2) - y(d1,3) = 120
constr(125):  x(d1,4) + y(d1,3) - y(d1,4) = 360
constr(126):  x(d1,5) + y(d1,4) - y(d1,5) = 300
constr(127):  x(d1,6) + y(d1,5) - y(d1,6) = 120
constr(128):  x(d1,7) + y(d1,6) - y(d1,7) = 120
constr(129):  x(d1,8) + y(d1,7) - y(d1,8) = 30
constr(130):  x(d1,9) + y(d1,8) - y(d1,9) = 150
constr(131):  x(d1,10) + y(d1,9) - y(d1,10) = 90
constr(132):  x(d1,11) + y(d1,10) - y(d1,11) = 360
constr(133):  x(d1,12) + y(d1,11) - y(d1,12) = 210
constr(134):  x(e1,1) + y(e1,0) - y(e1,1) = 6
constr(135):  x(e1,2) + y(e1,1) - y(e1,2) = 24
constr(136):  x(e1,3) + y(e1,2) - y(e1,3) = 54
constr(137):  x(e1,4) + y(e1,3) - y(e1,4) = 12
constr(138):  x(e1,5) + y(e1,4) - y(e1,5) = 72
constr(139):  x(e1,6) + y(e1,5) - y(e1,6) = 42
constr(140):  x(e1,7) + y(e1,6) - y(e1,7) = 18
constr(141):  x(e1,8) + y(e1,7) - y(e1,8) = 42
constr(142):  x(e1,9) + y(e1,8) - y(e1,9) = 12
constr(143):  x(e1,10) + y(e1,9) - y(e1,10) = 12
constr(144):  x(e1,11) + y(e1,10) - y(e1,11) = 60
constr(145):  x(e1,12) + y(e1,11) - y(e1,12) = 60
constr(146):  x(f1,1) + y(f1,0) - y(f1,1) = 5
constr(147):  x(f1,2) + y(f1,1) - y(f1,2) = 15
constr(148):  x(f1,3) + y(f1,2) - y(f1,3) = 15
constr(149):  x(f1,4) + y(f1,3) - y(f1,4) = 10
constr(150):  x(f1,5) + y(f1,4) - y(f1,5) = 35
constr(151):  x(f1,6) + y(f1,5) - y(f1,6) = 20
constr(152):  x(f1,7) + y(f1,6) - y(f1,7) = 45
constr(153):  x(f1,8) + y(f1,7) - y(f1,8) = 60
constr(154):  x(f1,9) + y(f1,8) - y(f1,9) = 40
constr(155):  x(f1,10) + y(f1,9) - y(f1,10) = 35
constr(156):  x(f1,11) + y(f1,10) - y(f1,11) = 35
constr(157):  x(f1,12) + y(f1,11) - y(f1,12) = 55
constr(158):  x(g1,1) + y(g1,0) - y(g1,1) = 110
constr(159):  x(g1,2) + y(g1,1) - y(g1,2) = 1320
constr(160):  x(g1,3) + y(g1,2) - y(g1,3) = 330
constr(161):  x(g1,4) + y(g1,3) - y(g1,4) = 990
constr(162):  x(g1,5) + y(g1,4) - y(g1,5) = 880
constr(163):  x(g1,6) + y(g1,5) - y(g1,6) = 770
constr(164):  x(g1,7) + y(g1,6) - y(g1,7) = 1320
constr(165):  x(g1,8) + y(g1,7) - y(g1,8) = 440
constr(166):  x(g1,9) + y(g1,8) - y(g1,9) = 440
constr(167):  x(g1,10) + y(g1,9) - y(g1,10) = 330
constr(168):  x(g1,11) + y(g1,10) - y(g1,11) = 770
constr(169):  x(g1,12) + y(g1,11) - y(g1,12) = 550
constr(170):  x(h1,1) + y(h1,0) - y(h1,1) = 5
constr(171):  x(h1,2) + y(h1,1) - y(h1,2) = 20
constr(172):  x(h1,3) + y(h1,2) - y(h1,3) = 5
constr(173):  x(h1,4) + y(h1,3) - y(h1,4) = 10
constr(174):  x(h1,5) + y(h1,4) - y(h1,5) = 20
constr(175):  x(h1,6) + y(h1,5) - y(h1,6) = 25
constr(176):  x(h1,7) + y(h1,6) - y(h1,7) = 30
constr(177):  x(h1,8) + y(h1,7) - y(h1,8) = 55
constr(178):  x(h1,9) + y(h1,8) - y(h1,9) = 20
constr(179):  x(h1,10) + y(h1,9) - y(h1,10) = 15
constr(180):  x(h1,11) + y(h1,10) - y(h1,11) = 30
constr(181):  x(h1,12) + y(h1,11) - y(h1,12) = 15
constr(182):  y(a1,1) >= 1
constr(183):  y(a1,2) >= 1
constr(184):  y(a1,3) >= 1
constr(185):  y(a1,4) >= 1
constr(186):  y(a1,5) >= 1
constr(187):  y(a1,6) >= 1
constr(188):  y(a1,7) >= 1
constr(189):  y(a1,8) >= 1
constr(190):  y(a1,9) >= 1
constr(191):  y(a1,10) >= 1
constr(192):  y(a1,11) >= 1
constr(193):  y(a1,12) >= 1
constr(194):  y(a2,1) >= 1
constr(195):  y(a2,2) >= 1
constr(196):  y(a2,3) >= 1
constr(197):  y(a2,4) >= 1
constr(198):  y(a2,5) >= 1
constr(199):  y(a2,6) >= 1
constr(200):  y(a2,7) >= 1
constr(201):  y(a2,8) >= 1
constr(202):  y(a2,9) >= 1
constr(203):  y(a2,10) >= 1
constr(204):  y(a2,11) >= 1
constr(205):  y(a2,12) >= 1
constr(206):  y(a3,1) >= 1
constr(207):  y(a3,2) >= 1
constr(208):  y(a3,3) >= 1
constr(209):  y(a3,4) >= 1
constr(210):  y(a3,5) >= 1
constr(211):  y(a3,6) >= 1
constr(212):  y(a3,7) >= 1
constr(213):  y(a3,8) >= 1
constr(214):  y(a3,9) >= 1
constr(215):  y(a3,10) >= 1
constr(216):  y(a3,11) >= 1
constr(217):  y(a3,12) >= 1
constr(218):  y(a4,1) >= 1
constr(219):  y(a4,2) >= 1
constr(220):  y(a4,3) >= 1
constr(221):  y(a4,4) >= 1
constr(222):  y(a4,5) >= 1
constr(223):  y(a4,6) >= 1
constr(224):  y(a4,7) >= 1
constr(225):  y(a4,8) >= 1
constr(226):  y(a4,9) >= 1
constr(227):  y(a4,10) >= 1
constr(228):  y(a4,11) >= 1
constr(229):  y(a4,12) >= 1
constr(230):  y(b1,1) >= 1
constr(231):  y(b1,2) >= 1
constr(232):  y(b1,3) >= 1
constr(233):  y(b1,4) >= 1
constr(234):  y(b1,5) >= 1
constr(235):  y(b1,6) >= 1
constr(236):  y(b1,7) >= 1
constr(237):  y(b1,8) >= 1
constr(238):  y(b1,9) >= 1
constr(239):  y(b1,10) >= 1
constr(240):  y(b1,11) >= 1
constr(241):  y(b1,12) >= 1
constr(242):  y(b2,1) >= 1
constr(243):  y(b2,2) >= 1
constr(244):  y(b2,3) >= 1
constr(245):  y(b2,4) >= 1
constr(246):  y(b2,5) >= 1
constr(247):  y(b2,6) >= 1
constr(248):  y(b2,7) >= 1
constr(249):  y(b2,8) >= 1
constr(250):  y(b2,9) >= 1
constr(251):  y(b2,10) >= 1
constr(252):  y(b2,11) >= 1
constr(253):  y(b2,12) >= 1
constr(254):  y(b3,1) >= 1
constr(255):  y(b3,2) >= 1
constr(256):  y(b3,3) >= 1
constr(257):  y(b3,4) >= 1
constr(258):  y(b3,5) >= 1
constr(259):  y(b3,6) >= 1
constr(260):  y(b3,7) >= 1
constr(261):  y(b3,8) >= 1
constr(262):  y(b3,9) >= 1
constr(263):  y(b3,10) >= 1
constr(264):  y(b3,11) >= 1
constr(265):  y(b3,12) >= 1
constr(266):  y(b4,1) >= 1
constr(267):  y(b4,2) >= 1
constr(268):  y(b4,3) >= 1
constr(269):  y(b4,4) >= 1
constr(270):  y(b4,5) >= 1
constr(271):  y(b4,6) >= 1
constr(272):  y(b4,7) >= 1
constr(273):  y(b4,8) >= 1
constr(274):  y(b4,9) >= 1
constr(275):  y(b4,10) >= 1
constr(276):  y(b4,11) >= 1
constr(277):  y(b4,12) >= 1
constr(278):  y(c1,1) >= 1
constr(279):  y(c1,2) >= 1
constr(280):  y(c1,3) >= 1
constr(281):  y(c1,4) >= 1
constr(282):  y(c1,5) >= 1
constr(283):  y(c1,6) >= 1
constr(284):  y(c1,7) >= 1
constr(285):  y(c1,8) >= 1
constr(286):  y(c1,9) >= 1
constr(287):  y(c1,10) >= 1
constr(288):  y(c1,11) >= 1
constr(289):  y(c1,12) >= 1
constr(290):  y(d1,1) >= 3
constr(291):  y(d1,2) >= 3
constr(292):  y(d1,3) >= 3
constr(293):  y(d1,4) >= 3
constr(294):  y(d1,5) >= 3
constr(295):  y(d1,6) >= 3
constr(296):  y(d1,7) >= 3
constr(297):  y(d1,8) >= 3
constr(298):  y(d1,9) >= 3
constr(299):  y(d1,10) >= 3
constr(300):  y(d1,11) >= 3
constr(301):  y(d1,12) >= 3
constr(302):  y(e1,1) >= 1
constr(303):  y(e1,2) >= 1
constr(304):  y(e1,3) >= 1
constr(305):  y(e1,4) >= 1
constr(306):  y(e1,5) >= 1
constr(307):  y(e1,6) >= 1
constr(308):  y(e1,7) >= 1
constr(309):  y(e1,8) >= 1
constr(310):  y(e1,9) >= 1
constr(311):  y(e1,10) >= 1
constr(312):  y(e1,11) >= 1
constr(313):  y(e1,12) >= 1
constr(314):  y(f1,1) >= 1
constr(315):  y(f1,2) >= 1
constr(316):  y(f1,3) >= 1
constr(317):  y(f1,4) >= 1
constr(318):  y(f1,5) >= 1
constr(319):  y(f1,6) >= 1
constr(320):  y(f1,7) >= 1
constr(321):  y(f1,8) >= 1
constr(322):  y(f1,9) >= 1
constr(323):  y(f1,10) >= 1
constr(324):  y(f1,11) >= 1
constr(325):  y(f1,12) >= 1
constr(326):  y(g1,1) >= 3
constr(327):  y(g1,2) >= 3
constr(328):  y(g1,3) >= 3
constr(329):  y(g1,4) >= 3
constr(330):  y(g1,5) >= 3
constr(331):  y(g1,6) >= 3
constr(332):  y(g1,7) >= 3
constr(333):  y(g1,8) >= 3
constr(334):  y(g1,9) >= 3
constr(335):  y(g1,10) >= 3
constr(336):  y(g1,11) >= 3
constr(337):  y(g1,12) >= 3
constr(338):  y(h1,1) >= 1
constr(339):  y(h1,2) >= 1
constr(340):  y(h1,3) >= 1
constr(341):  y(h1,4) >= 1
constr(342):  y(h1,5) >= 1
constr(343):  y(h1,6) >= 1
constr(344):  y(h1,7) >= 1
constr(345):  y(h1,8) >= 1
constr(346):  y(h1,9) >= 1
constr(347):  y(h1,10) >= 1
constr(348):  y(h1,11) >= 1
constr(349):  y(h1,12) >= 1
constr(350):  0.00360 y(a1,1) + 0.00360 y(a1,2) + 0.00360 y(a1,3) + 0.00360 y(a1,4) + 0.00360 y(a1,5) + 0.00360 y(a1,6) + 0.00360 y(a1,7) + 0.00360 y(a1,8) + 0.00360 y(a1,9) + 0.00360 y(a1,10)
 + 0.00360 y(a1,11) + 0.00360 y(a1,12) + 0.00360 y(a2,1) + 0.00360 y(a2,2) + 0.00360 y(a2,3) + 0.00360 y(a2,4) + 0.00360 y(a2,5) + 0.00360 y(a2,6) + 0.00360 y(a2,7) + 0.00360 y(a2,8)
 + 0.00360 y(a2,9) + 0.00360 y(a2,10) + 0.00360 y(a2,11) + 0.00360 y(a2,12) + 0.00360 y(a3,1) + 0.00360 y(a3,2) + 0.00360 y(a3,3) + 0.00360 y(a3,4) + 0.00360 y(a3,5) + 0.00360 y(a3,6)
 + 0.00360 y(a3,7) + 0.00360 y(a3,8) + 0.00360 y(a3,9) + 0.00360 y(a3,10) + 0.00360 y(a3,11) + 0.00360 y(a3,12) + 0.00360 y(a4,1) + 0.00360 y(a4,2) + 0.00360 y(a4,3) + 0.00360 y(a4,4)
 + 0.00360 y(a4,5) + 0.00360 y(a4,6) + 0.00360 y(a4,7) + 0.00360 y(a4,8) + 0.00360 y(a4,9) + 0.00360 y(a4,10) + 0.00360 y(a4,11) + 0.00360 y(a4,12) + 0.00547 y(b1,1) + 0.00547 y(b1,2)
 + 0.00547 y(b1,3) + 0.00547 y(b1,4) + 0.00547 y(b1,5) + 0.00547 y(b1,6) + 0.00547 y(b1,7) + 0.00547 y(b1,8) + 0.00547 y(b1,9) + 0.00547 y(b1,10) + 0.00547 y(b1,11) + 0.00547 y(b1,12)
 + 0.00547 y(b2,1) + 0.00547 y(b2,2) + 0.00547 y(b2,3) + 0.00547 y(b2,4) + 0.00547 y(b2,5) + 0.00547 y(b2,6) + 0.00547 y(b2,7) + 0.00547 y(b2,8) + 0.00547 y(b2,9) + 0.00547 y(b2,10)
 + 0.00547 y(b2,11) + 0.00547 y(b2,12) + 0.00547 y(b3,1) + 0.00547 y(b3,2) + 0.00547 y(b3,3) + 0.00547 y(b3,4) + 0.00547 y(b3,5) + 0.00547 y(b3,6) + 0.00547 y(b3,7) + 0.00547 y(b3,8)
 + 0.00547 y(b3,9) + 0.00547 y(b3,10) + 0.00547 y(b3,11) + 0.00547 y(b3,12) + 0.00547 y(b4,1) + 0.00547 y(b4,2) + 0.00547 y(b4,3) + 0.00547 y(b4,4) + 0.00547 y(b4,5) + 0.00547 y(b4,6)
 + 0.00547 y(b4,7) + 0.00547 y(b4,8) + 0.00547 y(b4,9) + 0.00547 y(b4,10) + 0.00547 y(b4,11) + 0.00547 y(b4,12) + 0.00543 y(c1,1) + 0.00543 y(c1,2) + 0.00543 y(c1,3) + 0.00543 y(c1,4)
 + 0.00543 y(c1,5) + 0.00543 y(c1,6) + 0.00543 y(c1,7) + 0.00543 y(c1,8) + 0.00543 y(c1,9) + 0.00543 y(c1,10) + 0.00543 y(c1,11) + 0.00543 y(c1,12) + 0.00543 y(d1,1) + 0.00543 y(d1,2)
 + 0.00543 y(d1,3) + 0.00543 y(d1,4) + 0.00543 y(d1,5) + 0.00543 y(d1,6) + 0.00543 y(d1,7) + 0.00543 y(d1,8) + 0.00543 y(d1,9) + 0.00543 y(d1,10) + 0.00543 y(d1,11) + 0.00543 y(d1,12)
 + 0.01580 y(e1,1) + 0.01580 y(e1,2) + 0.01580 y(e1,3) + 0.01580 y(e1,4) + 0.01580 y(e1,5) + 0.01580 y(e1,6) + 0.01580 y(e1,7) + 0.01580 y(e1,8) + 0.01580 y(e1,9) + 0.01580 y(e1,10)
 + 0.01580 y(e1,11) + 0.01580 y(e1,12) + 0.01239 y(f1,1) + 0.01239 y(f1,2) + 0.01239 y(f1,3) + 0.01239 y(f1,4) + 0.01239 y(f1,5) + 0.01239 y(f1,6) + 0.01239 y(f1,7) + 0.01239 y(f1,8)
 + 0.01239 y(f1,9) + 0.01239 y(f1,10) + 0.01239 y(f1,11) + 0.01239 y(f1,12) + 0.01239 y(g1,1) + 0.01239 y(g1,2) + 0.01239 y(g1,3) + 0.01239 y(g1,4) + 0.01239 y(g1,5) + 0.01239 y(g1,6)
 + 0.01239 y(g1,7) + 0.01239 y(g1,8) + 0.01239 y(g1,9) + 0.01239 y(g1,10) + 0.01239 y(g1,11) + 0.01239 y(g1,12) + 0.00852 y(h1,1) + 0.00852 y(h1,2) + 0.00852 y(h1,3) + 0.00852 y(h1,4)
 + 0.00852 y(h1,5) + 0.00852 y(h1,6) + 0.00852 y(h1,7) + 0.00852 y(h1,8) + 0.00852 y(h1,9) + 0.00852 y(h1,10) + 0.00852 y(h1,11) + 0.00852 y(h1,12) <= 56.32000
constr(351):  x(a1,1) >= -0
constr(352):  x(a1,2) >= -0
constr(353):  x(a1,3) >= -0
constr(354):  x(a1,4) >= -0
constr(355):  x(a1,5) >= -0
constr(356):  x(a1,6) >= -0
constr(357):  x(a1,7) >= -0
constr(358):  x(a1,8) >= -0
constr(359):  x(a1,9) >= -0
constr(360):  x(a1,10) >= -0
constr(361):  x(a1,11) >= -0
constr(362):  x(a1,12) >= -0
constr(363):  x(a2,1) >= -0
constr(364):  x(a2,2) >= -0
constr(365):  x(a2,3) >= -0
constr(366):  x(a2,4) >= -0
constr(367):  x(a2,5) >= -0
constr(368):  x(a2,6) >= -0
constr(369):  x(a2,7) >= -0
constr(370):  x(a2,8) >= -0
constr(371):  x(a2,9) >= -0
constr(372):  x(a2,10) >= -0
constr(373):  x(a2,11) >= -0
constr(374):  x(a2,12) >= -0
constr(375):  x(a3,1) >= -0
constr(376):  x(a3,2) >= -0
constr(377):  x(a3,3) >= -0
constr(378):  x(a3,4) >= -0
constr(379):  x(a3,5) >= -0
constr(380):  x(a3,6) >= -0
constr(381):  x(a3,7) >= -0
constr(382):  x(a3,8) >= -0
constr(383):  x(a3,9) >= -0
constr(384):  x(a3,10) >= -0
constr(385):  x(a3,11) >= -0
constr(386):  x(a3,12) >= -0
constr(387):  x(a4,1) >= -0
constr(388):  x(a4,2) >= -0
constr(389):  x(a4,3) >= -0
constr(390):  x(a4,4) >= -0
constr(391):  x(a4,5) >= -0
constr(392):  x(a4,6) >= -0
constr(393):  x(a4,7) >= -0
constr(394):  x(a4,8) >= -0
constr(395):  x(a4,9) >= -0
constr(396):  x(a4,10) >= -0
constr(397):  x(a4,11) >= -0
constr(398):  x(a4,12) >= -0
constr(399):  x(b1,1) >= -0
constr(400):  x(b1,2) >= -0
constr(401):  x(b1,3) >= -0
constr(402):  x(b1,4) >= -0
constr(403):  x(b1,5) >= -0
constr(404):  x(b1,6) >= -0
constr(405):  x(b1,7) >= -0
constr(406):  x(b1,8) >= -0
constr(407):  x(b1,9) >= -0
constr(408):  x(b1,10) >= -0
constr(409):  x(b1,11) >= -0
constr(410):  x(b1,12) >= -0
constr(411):  x(b2,1) >= -0
constr(412):  x(b2,2) >= -0
constr(413):  x(b2,3) >= -0
constr(414):  x(b2,4) >= -0
constr(415):  x(b2,5) >= -0
constr(416):  x(b2,6) >= -0
constr(417):  x(b2,7) >= -0
constr(418):  x(b2,8) >= -0
constr(419):  x(b2,9) >= -0
constr(420):  x(b2,10) >= -0
constr(421):  x(b2,11) >= -0
constr(422):  x(b2,12) >= -0
constr(423):  x(b3,1) >= -0
constr(424):  x(b3,2) >= -0
constr(425):  x(b3,3) >= -0
constr(426):  x(b3,4) >= -0
constr(427):  x(b3,5) >= -0
constr(428):  x(b3,6) >= -0
constr(429):  x(b3,7) >= -0
constr(430):  x(b3,8) >= -0
constr(431):  x(b3,9) >= -0
constr(432):  x(b3,10) >= -0
constr(433):  x(b3,11) >= -0
constr(434):  x(b3,12) >= -0
constr(435):  x(b4,1) >= -0
constr(436):  x(b4,2) >= -0
constr(437):  x(b4,3) >= -0
constr(438):  x(b4,4) >= -0
constr(439):  x(b4,5) >= -0
constr(440):  x(b4,6) >= -0
constr(441):  x(b4,7) >= -0
constr(442):  x(b4,8) >= -0
constr(443):  x(b4,9) >= -0
constr(444):  x(b4,10) >= -0
constr(445):  x(b4,11) >= -0
constr(446):  x(b4,12) >= -0
constr(447):  x(c1,1) >= -0
constr(448):  x(c1,2) >= -0
constr(449):  x(c1,3) >= -0
constr(450):  x(c1,4) >= -0
constr(451):  x(c1,5) >= -0
constr(452):  x(c1,6) >= -0
constr(453):  x(c1,7) >= -0
constr(454):  x(c1,8) >= -0
constr(455):  x(c1,9) >= -0
constr(456):  x(c1,10) >= -0
constr(457):  x(c1,11) >= -0
constr(458):  x(c1,12) >= -0
constr(459):  x(d1,1) >= -0
constr(460):  x(d1,2) >= -0
constr(461):  x(d1,3) >= -0
constr(462):  x(d1,4) >= -0
constr(463):  x(d1,5) >= -0
constr(464):  x(d1,6) >= -0
constr(465):  x(d1,7) >= -0
constr(466):  x(d1,8) >= -0
constr(467):  x(d1,9) >= -0
constr(468):  x(d1,10) >= -0
constr(469):  x(d1,11) >= -0
constr(470):  x(d1,12) >= -0
constr(471):  x(e1,1) >= -0
constr(472):  x(e1,2) >= -0
constr(473):  x(e1,3) >= -0
constr(474):  x(e1,4) >= -0
constr(475):  x(e1,5) >= -0
constr(476):  x(e1,6) >= -0
constr(477):  x(e1,7) >= -0
constr(478):  x(e1,8) >= -0
constr(479):  x(e1,9) >= -0
constr(480):  x(e1,10) >= -0
constr(481):  x(e1,11) >= -0
constr(482):  x(e1,12) >= -0
constr(483):  x(f1,1) >= -0
constr(484):  x(f1,2) >= -0
constr(485):  x(f1,3) >= -0
constr(486):  x(f1,4) >= -0
constr(487):  x(f1,5) >= -0
constr(488):  x(f1,6) >= -0
constr(489):  x(f1,7) >= -0
constr(490):  x(f1,8) >= -0
constr(491):  x(f1,9) >= -0
constr(492):  x(f1,10) >= -0
constr(493):  x(f1,11) >= -0
constr(494):  x(f1,12) >= -0
constr(495):  x(g1,1) >= -0
constr(496):  x(g1,2) >= -0
constr(497):  x(g1,3) >= -0
constr(498):  x(g1,4) >= -0
constr(499):  x(g1,5) >= -0
constr(500):  x(g1,6) >= -0
constr(501):  x(g1,7) >= -0
constr(502):  x(g1,8) >= -0
constr(503):  x(g1,9) >= -0
constr(504):  x(g1,10) >= -0
constr(505):  x(g1,11) >= -0
constr(506):  x(g1,12) >= -0
constr(507):  x(h1,1) >= -0
constr(508):  x(h1,2) >= -0
constr(509):  x(h1,3) >= -0
constr(510):  x(h1,4) >= -0
constr(511):  x(h1,5) >= -0
constr(512):  x(h1,6) >= -0
constr(513):  x(h1,7) >= -0
constr(514):  x(h1,8) >= -0
constr(515):  x(h1,9) >= -0
constr(516):  x(h1,10) >= -0
constr(517):  x(h1,11) >= -0
constr(518):  x(h1,12) >= -0
Bounds
Integers
x(a1,0) x(a1,1) x(a1,2) x(a1,3) x(a1,4) x(a1,5) x(a1,6) x(a1,7) x(a1,8) x(a1,9) 
x(a1,10) x(a1,11) x(a1,12) x(a2,0) x(a2,1) x(a2,2) x(a2,3) x(a2,4) x(a2,5) x(a2,6) 
x(a2,7) x(a2,8) x(a2,9) x(a2,10) x(a2,11) x(a2,12) x(a3,0) x(a3,1) x(a3,2) x(a3,3) 
x(a3,4) x(a3,5) x(a3,6) x(a3,7) x(a3,8) x(a3,9) x(a3,10) x(a3,11) x(a3,12) x(a4,0) 
x(a4,1) x(a4,2) x(a4,3) x(a4,4) x(a4,5) x(a4,6) x(a4,7) x(a4,8) x(a4,9) x(a4,10) 
x(a4,11) x(a4,12) x(b1,0) x(b1,1) x(b1,2) x(b1,3) x(b1,4) x(b1,5) x(b1,6) x(b1,7) 
x(b1,8) x(b1,9) x(b1,10) x(b1,11) x(b1,12) x(b2,0) x(b2,1) x(b2,2) x(b2,3) x(b2,4) 
x(b2,5) x(b2,6) x(b2,7) x(b2,8) x(b2,9) x(b2,10) x(b2,11) x(b2,12) x(b3,0) x(b3,1) 
x(b3,2) x(b3,3) x(b3,4) x(b3,5) x(b3,6) x(b3,7) x(b3,8) x(b3,9) x(b3,10) x(b3,11) 
x(b3,12) x(b4,0) x(b4,1) x(b4,2) x(b4,3) x(b4,4) x(b4,5) x(b4,6) x(b4,7) x(b4,8) 
x(b4,9) x(b4,10) x(b4,11) x(b4,12) x(c1,0) x(c1,1) x(c1,2) x(c1,3) x(c1,4) x(c1,5) 
x(c1,6) x(c1,7) x(c1,8) x(c1,9) x(c1,10) x(c1,11) x(c1,12) x(d1,0) x(d1,1) x(d1,2) 
x(d1,3) x(d1,4) x(d1,5) x(d1,6) x(d1,7) x(d1,8) x(d1,9) x(d1,10) x(d1,11) x(d1,12) 
x(e1,0) x(e1,1) x(e1,2) x(e1,3) x(e1,4) x(e1,5) x(e1,6) x(e1,7) x(e1,8) x(e1,9) 
x(e1,10) x(e1,11) x(e1,12) x(f1,0) x(f1,1) x(f1,2) x(f1,3) x(f1,4) x(f1,5) x(f1,6) 
x(f1,7) x(f1,8) x(f1,9) x(f1,10) x(f1,11) x(f1,12) x(g1,0) x(g1,1) x(g1,2) x(g1,3) 
x(g1,4) x(g1,5) x(g1,6) x(g1,7) x(g1,8) x(g1,9) x(g1,10) x(g1,11) x(g1,12) x(h1,0) 
x(h1,1) x(h1,2) x(h1,3) x(h1,4) x(h1,5) x(h1,6) x(h1,7) x(h1,8) x(h1,9) x(h1,10) 
x(h1,11) x(h1,12) y(a1,0) y(a1,1) y(a1,2) y(a1,3) y(a1,4) y(a1,5) y(a1,6) y(a1,7) 
y(a1,8) y(a1,9) y(a1,10) y(a1,11) y(a1,12) y(a2,0) y(a2,1) y(a2,2) y(a2,3) y(a2,4) 
y(a2,5) y(a2,6) y(a2,7) y(a2,8) y(a2,9) y(a2,10) y(a2,11) y(a2,12) y(a3,0) y(a3,1) 
y(a3,2) y(a3,3) y(a3,4) y(a3,5) y(a3,6) y(a3,7) y(a3,8) y(a3,9) y(a3,10) y(a3,11) 
y(a3,12) y(a4,0) y(a4,1) y(a4,2) y(a4,3) y(a4,4) y(a4,5) y(a4,6) y(a4,7) y(a4,8) 
y(a4,9) y(a4,10) y(a4,11) y(a4,12) y(b1,0) y(b1,1) y(b1,2) y(b1,3) y(b1,4) y(b1,5) 
y(b1,6) y(b1,7) y(b1,8) y(b1,9) y(b1,10) y(b1,11) y(b1,12) y(b2,0) y(b2,1) y(b2,2) 
y(b2,3) y(b2,4) y(b2,5) y(b2,6) y(b2,7) y(b2,8) y(b2,9) y(b2,10) y(b2,11) y(b2,12) 
y(b3,0) y(b3,1) y(b3,2) y(b3,3) y(b3,4) y(b3,5) y(b3,6) y(b3,7) y(b3,8) y(b3,9) 
y(b3,10) y(b3,11) y(b3,12) y(b4,0) y(b4,1) y(b4,2) y(b4,3) y(b4,4) y(b4,5) y(b4,6) 
y(b4,7) y(b4,8) y(b4,9) y(b4,10) y(b4,11) y(b4,12) y(c1,0) y(c1,1) y(c1,2) y(c1,3) 
y(c1,4) y(c1,5) y(c1,6) y(c1,7) y(c1,8) y(c1,9) y(c1,10) y(c1,11) y(c1,12) y(d1,0) 
y(d1,1) y(d1,2) y(d1,3) y(d1,4) y(d1,5) y(d1,6) y(d1,7) y(d1,8) y(d1,9) y(d1,10) 
y(d1,11) y(d1,12) y(e1,0) y(e1,1) y(e1,2) y(e1,3) y(e1,4) y(e1,5) y(e1,6) y(e1,7) 
y(e1,8) y(e1,9) y(e1,10) y(e1,11) y(e1,12) y(f1,0) y(f1,1) y(f1,2) y(f1,3) y(f1,4) 
y(f1,5) y(f1,6) y(f1,7) y(f1,8) y(f1,9) y(f1,10) y(f1,11) y(f1,12) y(g1,0) y(g1,1) 
y(g1,2) y(g1,3) y(g1,4) y(g1,5) y(g1,6) y(g1,7) y(g1,8) y(g1,9) y(g1,10) y(g1,11) 
y(g1,12) y(h1,0) y(h1,1) y(h1,2) y(h1,3) y(h1,4) y(h1,5) y(h1,6) y(h1,7) y(h1,8) 
y(h1,9) y(h1,10) y(h1,11) y(h1,12) 
End
